
        $ From http://www.csplib.org/Problems/prob009/data/helmut.pdf
        $ Problem number 73
        $ Sequence length : 25
        language ESSENCE' 1.0
        letting sizemaster be 290
        letting sizes be sequence(1,2,10,11,13,14,15,17,18,28,29,34,36,38,50,56,60,69,77,80,85,91,94,111,119)
        